&CONTROL
   calculation      = 'scf'
   verbosity        = 'high'
   restart_mode     = 'from_scratch'
   tstress          = .true.
   tprnfor          = .true.
   outdir           = './out'
   prefix           = 'qe'
   pseudo_dir       = './pseudo'
/
&SYSTEM
   ecutwfc          = 40.0
   ecutrho          = 320.0
   occupations      = 'smearing'
   degauss          = 0.01
   smearing         = 'gaussian'
   ntyp             = 1
   nat              = 1
   ibrav            = 0
/
&ELECTRONS
   conv_thr         = 1e-06
   mixing_beta      = 0.7
/
&IONS
/
&CELL
/

ATOMIC_SPECIES
Au 196.966569 None

K_POINTS automatic
4 4 4  0 0 0

CELL_PARAMETERS angstrom
3.50000000000000 0.00000000000000 0.00000000000000
0.00000000000000 3.50000000000000 0.00000000000000
0.00000000000000 0.00000000000000 3.50000000000000

ATOMIC_POSITIONS angstrom
Au 0.0000000000 0.0000000000 0.0000000000 

